p cnf 217 490
1 0
2 0
3 0
4 0
5 0
6 0
7 0
8 0
9 0
10 0
-11 0
-12 0
-13 0
-14 0
-15 0
-16 0
-17 0
-18 0
-19 0
-20 0
1 -21 0
-1 21 0
2 -22 0
-2 22 0
3 -23 0
-3 23 0
4 -24 0
-4 24 0
5 -25 0
-5 25 0
6 -26 0
-6 26 0
7 -27 0
-7 27 0
8 -28 0
-8 28 0
9 -29 0
-9 29 0
10 -30 0
-10 30 0
31 32 0
33 32 0
34 32 0
-33 -31 -34 -32 0
-11 32 -35 0
11 -32 -35 0
35 -32 -11 0
11 32 35 0
-35 0
33 36 0
34 36 0
-33 -34 -36 0
-37 36 -38 0
37 -36 -38 0
38 -36 -37 0
37 36 38 0
-38 0
39 -34 0
-39 34 0
40 41 0
42 41 0
43 41 0
-43 -40 -42 -41 0
-12 41 -44 0
12 -41 -44 0
44 -41 -12 0
12 41 44 0
-44 0
-45 41 -46 0
45 -41 -46 0
46 -41 -45 0
45 41 46 0
-46 0
-47 41 -48 0
47 -41 -48 0
48 -41 -47 0
47 41 48 0
-48 0
49 50 0
51 50 0
52 50 0
53 50 0
-54 0
-13 50 -55 0
13 -50 -55 0
55 -50 -13 0
13 50 55 0
-55 0
51 56 0
52 56 0
53 56 0
-51 -52 -53 -56 0
-57 56 -58 0
57 -56 -58 0
58 -56 -57 0
57 56 58 0
-58 0
-59 56 -60 0
59 -56 -60 0
60 -56 -59 0
59 56 60 0
-60 0
-61 56 -62 0
61 -56 -62 0
62 -56 -61 0
61 56 62 0
-62 0
63 64 0
65 64 0
66 64 0
67 64 0
-68 0
-14 64 -69 0
14 -64 -69 0
69 -64 -14 0
14 64 69 0
-69 0
65 70 0
66 70 0
67 70 0
-65 -66 -67 -70 0
-71 70 -72 0
71 -70 -72 0
72 -70 -71 0
71 70 72 0
-72 0
66 73 0
67 73 0
-66 -67 -73 0
-74 73 -75 0
74 -73 -75 0
75 -73 -74 0
74 73 75 0
-75 0
-76 73 -77 0
76 -73 -77 0
77 -73 -76 0
76 73 77 0
-77 0
78 79 0
80 79 0
81 79 0
82 79 0
83 79 0
84 79 0
85 79 0
86 79 0
-87 0
-15 79 -88 0
15 -79 -88 0
88 -79 -15 0
15 79 88 0
-88 0
80 89 0
81 89 0
82 89 0
83 89 0
84 89 0
85 89 0
86 89 0
-90 0
-91 89 -92 0
91 -89 -92 0
92 -89 -91 0
91 89 92 0
-92 0
81 93 0
82 93 0
83 93 0
84 93 0
85 93 0
86 93 0
-94 0
-95 93 -96 0
95 -93 -96 0
96 -93 -95 0
95 93 96 0
-96 0
82 97 0
83 97 0
84 97 0
85 97 0
86 97 0
-98 0
-99 97 -100 0
99 -97 -100 0
100 -97 -99 0
99 97 100 0
-100 0
83 101 0
84 101 0
85 101 0
86 101 0
-102 0
-103 101 -104 0
103 -101 -104 0
104 -101 -103 0
103 101 104 0
-104 0
-105 101 -106 0
105 -101 -106 0
106 -101 -105 0
105 101 106 0
-106 0
-107 101 -108 0
107 -101 -108 0
108 -101 -107 0
107 101 108 0
-108 0
-109 101 -110 0
109 -101 -110 0
110 -101 -109 0
109 101 110 0
-110 0
111 112 0
113 112 0
114 112 0
115 112 0
116 112 0
117 112 0
-118 0
-16 112 -119 0
16 -112 -119 0
119 -112 -16 0
16 112 119 0
-119 0
113 120 0
114 120 0
115 120 0
116 120 0
117 120 0
-121 0
-122 120 -123 0
122 -120 -123 0
123 -120 -122 0
122 120 123 0
-123 0
114 124 0
115 124 0
116 124 0
117 124 0
-125 0
-126 124 -127 0
126 -124 -127 0
127 -124 -126 0
126 124 127 0
-127 0
-128 124 -129 0
128 -124 -129 0
129 -124 -128 0
128 124 129 0
-129 0
-130 124 -131 0
130 -124 -131 0
131 -124 -130 0
130 124 131 0
-131 0
-132 124 -133 0
132 -124 -133 0
133 -124 -132 0
132 124 133 0
-133 0
134 135 0
136 135 0
137 135 0
138 135 0
139 135 0
140 135 0
141 135 0
-142 0
-17 135 -143 0
17 -135 -143 0
143 -135 -17 0
17 135 143 0
-143 0
136 144 0
137 144 0
138 144 0
139 144 0
140 144 0
141 144 0
-145 0
-146 144 -147 0
146 -144 -147 0
147 -144 -146 0
146 144 147 0
-147 0
137 148 0
138 148 0
139 148 0
140 148 0
141 148 0
-149 0
-150 148 -151 0
150 -148 -151 0
151 -148 -150 0
150 148 151 0
-151 0
138 152 0
139 152 0
140 152 0
141 152 0
-153 0
-154 152 -155 0
154 -152 -155 0
155 -152 -154 0
154 152 155 0
-155 0
-156 152 -157 0
156 -152 -157 0
157 -152 -156 0
156 152 157 0
-157 0
-158 152 -159 0
158 -152 -159 0
159 -152 -158 0
158 152 159 0
-159 0
-160 152 -161 0
160 -152 -161 0
161 -152 -160 0
160 152 161 0
-161 0
162 163 0
164 163 0
-164 -162 -163 0
-18 163 -165 0
18 -163 -165 0
165 -163 -18 0
18 163 165 0
-165 0
166 -164 0
-166 164 0
167 168 0
169 168 0
170 168 0
171 168 0
172 168 0
173 168 0
174 168 0
-175 0
-19 168 -176 0
19 -168 -176 0
176 -168 -19 0
19 168 176 0
-176 0
169 177 0
170 177 0
171 177 0
172 177 0
173 177 0
174 177 0
-178 0
-179 177 -180 0
179 -177 -180 0
180 -177 -179 0
179 177 180 0
-180 0
170 181 0
171 181 0
172 181 0
173 181 0
174 181 0
-182 0
-183 181 -184 0
183 -181 -184 0
184 -181 -183 0
183 181 184 0
-184 0
171 185 0
172 185 0
173 185 0
174 185 0
-186 0
-187 185 -188 0
187 -185 -188 0
188 -185 -187 0
187 185 188 0
-188 0
-189 185 -190 0
189 -185 -190 0
190 -185 -189 0
189 185 190 0
-190 0
-191 185 -192 0
191 -185 -192 0
192 -185 -191 0
191 185 192 0
-192 0
-193 185 -194 0
193 -185 -194 0
194 -185 -193 0
193 185 194 0
-194 0
195 196 0
197 196 0
198 196 0
199 196 0
-200 0
-20 196 -201 0
20 -196 -201 0
201 -196 -20 0
20 196 201 0
-201 0
197 202 0
198 202 0
199 202 0
-197 -199 -198 -202 0
-203 202 -204 0
203 -202 -204 0
204 -202 -203 0
203 202 204 0
-204 0
198 205 0
199 205 0
-199 -198 -205 0
-206 205 -207 0
206 -205 -207 0
207 -205 -206 0
206 205 207 0
-207 0
208 -199 0
-208 199 0
21 -209 0
22 -209 0
23 -209 0
24 -209 0
25 -209 0
26 -209 0
27 -209 0
28 -209 0
29 -209 0
30 -209 0
31 -209 0
-209 -33 0
34 -209 0
40 -209 0
42 -209 0
-209 -43 0
-209 -49 0
-209 -51 0
52 -209 0
53 -209 0
-209 -63 0
-209 -65 0
-209 -66 0
67 -209 0
-209 -78 0
-209 -80 0
-209 -81 0
-209 -82 0
-209 -83 0
-209 -84 0
-209 -85 0
86 -209 0
-209 -111 0
113 -209 0
-209 -114 0
-209 -115 0
116 -209 0
-209 -117 0
-209 -134 0
136 -209 0
-209 -137 0
-209 -138 0
-209 -139 0
140 -209 0
141 -209 0
162 -209 0
-209 -164 0
167 -209 0
-209 -169 0
170 -209 0
-209 -171 0
-209 -172 0
173 -209 0
-209 -174 0
195 -209 0
-209 -197 0
198 -209 0
-209 -199 0
209 0
-210 0
-211 0
-212 0
-213 0
-214 0
-215 0
-216 0
-217 0
